; benchmark generated from python API
(set-info :status unknown)
(declare-fun x_epoch () Int)
(declare-fun x_plus_epoch () Int)
(declare-fun x_plus_month () Int)
(declare-fun x_plus_year () Int)
(declare-fun x_plus_day () Int)
(declare-fun x_plus_1_epoch () Int)
(assert
 (>= x_epoch (- 36584)))
(assert
 (<= x_epoch 36829))
(assert
 (>= x_epoch 8341))
(assert
 (<= x_epoch 8705))
(assert
 (>= x_plus_epoch (- 36584)))
(assert
 (<= x_plus_epoch 36829))
(assert
 (let (($x2409 (= x_plus_month 11)))
 (let (($x2188 (= x_plus_month 9)))
 (let (($x1536 (= x_plus_month 6)))
 (let (($x3578 (= x_plus_month 4)))
 (let ((?x161 (ite (or $x3578 $x1536 $x2188 $x2409) 30 31)))
 (let (($x173 (= (mod x_plus_year 400) 0)))
 (let (($x2731 (= (mod x_plus_year 4) 0)))
 (let (($x3981 (or (and $x2731 (and (distinct (mod x_plus_year 100) 0) true)) $x173)))
 (let (($x2451 (= x_plus_month 2)))
 (let (($x1691 (>= x_plus_day 1)))
 (let (($x3300 (<= x_plus_month 12)))
 (let (($x3913 (>= x_plus_month 1)))
 (let (($x3912 (<= x_plus_year 2100)))
 (let (($x3915 (>= x_plus_year 1900)))
 (and $x3915 $x3912 $x3913 $x3300 $x1691 (<= x_plus_day (ite $x2451 (ite $x3981 29 28) ?x161))))))))))))))))))
(assert
 (let (($x29 (or (and (= (mod 2000 4) 0) (and (distinct (mod 2000 100) 0) true)) (= (mod 2000 400) 0))))
 (let ((?x36 (ite (= 3 2) (ite $x29 31 31) (ite (= 3 1) (ite $x29 0 0) 0))))
 (let ((?x40 (ite $x29 60 59)))
 (let ((?x41 (ite (= 3 3) ?x40 ?x36)))
 (let ((?x46 (ite (= 3 4) (ite $x29 91 90) ?x41)))
 (let ((?x52 (ite (= 3 5) (ite $x29 121 120) ?x46)))
 (let ((?x58 (ite (= 3 6) (ite $x29 152 151) ?x52)))
 (let ((?x64 (ite (= 3 7) (ite $x29 182 181) ?x58)))
 (let ((?x70 (ite (= 3 8) (ite $x29 213 212) ?x64)))
 (let ((?x76 (ite (= 3 9) (ite $x29 244 243) ?x70)))
 (let ((?x82 (ite (= 3 10) (ite $x29 274 273) ?x76)))
 (let ((?x88 (ite (= 3 11) (ite $x29 305 304) ?x82)))
 (let ((?x16 (- (+ (* 365 (- 2000 1)) (div (- 2000 1) 4)) (div (- 2000 1) 100))))
 (let ((?x95 (+ (+ ?x16 (div (- 2000 1) 400)) (ite (= 3 12) (ite $x29 335 334) ?x88))))
 (let ((?x97 (+ ?x95 (- 1 1))))
 (let (($x173 (= (mod x_plus_year 400) 0)))
 (let (($x2731 (= (mod x_plus_year 4) 0)))
 (let (($x3981 (or (and $x2731 (and (distinct (mod x_plus_year 100) 0) true)) $x173)))
 (let ((?x3740 (ite (= 2 x_plus_month) (ite $x3981 31 31) (ite (= 1 x_plus_month) (ite $x3981 0 0) 0))))
 (let ((?x3681 (ite (= 4 x_plus_month) (ite $x3981 91 90) (ite (= 3 x_plus_month) (ite $x3981 60 59) ?x3740))))
 (let ((?x1162 (ite (= 6 x_plus_month) (ite $x3981 152 151) (ite (= 5 x_plus_month) (ite $x3981 121 120) ?x3681))))
 (let ((?x1908 (ite (= 8 x_plus_month) (ite $x3981 213 212) (ite (= 7 x_plus_month) (ite $x3981 182 181) ?x1162))))
 (let ((?x3644 (ite (= 10 x_plus_month) (ite $x3981 274 273) (ite (= 9 x_plus_month) (ite $x3981 244 243) ?x1908))))
 (let ((?x3847 (ite (= 12 x_plus_month) (ite $x3981 335 334) (ite (= 11 x_plus_month) (ite $x3981 305 304) ?x3644))))
 (let ((?x2526 (+ (* 365 (- x_plus_year 1)) (div (- x_plus_year 1) 4))))
 (let ((?x155 (+ (- ?x2526 (div (- x_plus_year 1) 100)) (div (- x_plus_year 1) 400))))
 (= x_plus_epoch (- (+ (+ ?x155 ?x3847) (- x_plus_day 1)) ?x97)))))))))))))))))))))))))))))
(assert
 (let (($x29 (or (and (= (mod 2000 4) 0) (and (distinct (mod 2000 100) 0) true)) (= (mod 2000 400) 0))))
 (let ((?x36 (ite (= 3 2) (ite $x29 31 31) (ite (= 3 1) (ite $x29 0 0) 0))))
 (let ((?x40 (ite $x29 60 59)))
 (let ((?x41 (ite (= 3 3) ?x40 ?x36)))
 (let ((?x46 (ite (= 3 4) (ite $x29 91 90) ?x41)))
 (let ((?x52 (ite (= 3 5) (ite $x29 121 120) ?x46)))
 (let ((?x58 (ite (= 3 6) (ite $x29 152 151) ?x52)))
 (let ((?x64 (ite (= 3 7) (ite $x29 182 181) ?x58)))
 (let ((?x70 (ite (= 3 8) (ite $x29 213 212) ?x64)))
 (let ((?x76 (ite (= 3 9) (ite $x29 244 243) ?x70)))
 (let ((?x82 (ite (= 3 10) (ite $x29 274 273) ?x76)))
 (let ((?x88 (ite (= 3 11) (ite $x29 305 304) ?x82)))
 (let ((?x16 (- (+ (* 365 (- 2000 1)) (div (- 2000 1) 4)) (div (- 2000 1) 100))))
 (let ((?x95 (+ (+ ?x16 (div (- 2000 1) 400)) (ite (= 3 12) (ite $x29 335 334) ?x88))))
 (let ((?x97 (+ ?x95 (- 1 1))))
 (let ((?x2924 (+ x_epoch ?x97)))
 (let ((?x727 (mod ?x2924 146097)))
 (let ((?x1551 (div ?x727 36524)))
 (let ((?x829 (ite (<= 4 ?x1551) 3 ?x1551)))
 (let ((?x661 (- ?x727 (* ?x829 36524))))
 (let ((?x522 (mod ?x661 1461)))
 (let ((?x268 (div ?x522 365)))
 (let ((?x530 (ite (<= 4 ?x268) 3 ?x268)))
 (let ((?x2487 (+ (+ (* (div ?x2924 146097) 400) (* ?x829 100)) (* (div ?x661 1461) 4))))
 (let ((?x2561 (+ (+ ?x2487 ?x530) 1)))
 (let (($x506 (or (and (= (mod ?x2561 4) 0) (and (distinct (mod ?x2561 100) 0) true)) (= (mod ?x2561 400) 0))))
 (let ((?x1830 (- ?x522 (* ?x530 365))))
 (let ((?x1481 (ite $x506 31 31)))
 (let (($x843 (>= ?x1830 ?x1481)))
 (let ((?x2703 (ite $x843 (+ (- ?x1830 ?x1481) 1) (+ (- ?x1830 (ite $x506 0 0)) 1))))
 (let ((?x1769 (ite $x506 60 59)))
 (let (($x696 (>= ?x1830 ?x1769)))
 (let ((?x1628 (ite $x506 91 90)))
 (let (($x110 (>= ?x1830 ?x1628)))
 (let ((?x487 (ite $x110 (+ (- ?x1830 ?x1628) 1) (ite $x696 (+ (- ?x1830 ?x1769) 1) ?x2703))))
 (let ((?x3177 (ite $x506 121 120)))
 (let (($x3167 (>= ?x1830 ?x3177)))
 (let ((?x2961 (ite $x506 152 151)))
 (let (($x2853 (>= ?x1830 ?x2961)))
 (let ((?x366 (ite $x2853 (+ (- ?x1830 ?x2961) 1) (ite $x3167 (+ (- ?x1830 ?x3177) 1) ?x487))))
 (let ((?x112 (ite $x506 182 181)))
 (let (($x2284 (>= ?x1830 ?x112)))
 (let ((?x3086 (ite $x506 213 212)))
 (let (($x795 (>= ?x1830 ?x3086)))
 (let ((?x1316 (ite $x795 (+ (- ?x1830 ?x3086) 1) (ite $x2284 (+ (- ?x1830 ?x112) 1) ?x366))))
 (let ((?x2707 (ite $x506 244 243)))
 (let (($x1828 (>= ?x1830 ?x2707)))
 (let ((?x1221 (ite $x506 274 273)))
 (let (($x1528 (>= ?x1830 ?x1221)))
 (let ((?x2530 (ite $x1528 (+ (- ?x1830 ?x1221) 1) (ite $x1828 (+ (- ?x1830 ?x2707) 1) ?x1316))))
 (let ((?x415 (ite $x506 305 304)))
 (let (($x3340 (>= ?x1830 ?x415)))
 (let ((?x629 (ite $x506 335 334)))
 (let (($x1422 (>= ?x1830 ?x629)))
 (let ((?x778 (ite $x1422 (+ (- ?x1830 ?x629) 1) (ite $x3340 (+ (- ?x1830 ?x415) 1) ?x2530))))
 (let ((?x4003 (+ (* 0 12) 2)))
 (let ((?x2157 (ite $x3167 5 (ite $x110 4 (ite $x696 3 (ite $x843 2 1))))))
 (let ((?x2411 (ite $x1828 9 (ite $x795 8 (ite $x2284 7 (ite $x2853 6 ?x2157))))))
 (let ((?x2610 (ite $x1422 12 (ite $x3340 11 (ite $x1528 10 ?x2411)))))
 (let ((?x2565 (+ ?x2610 ?x4003)))
 (let ((?x4004 (- ?x2565 1)))
 (let ((?x3824 (+ (mod ?x4004 12) 1)))
 (let ((?x3095 (ite (or (= ?x3824 4) (= ?x3824 6) (= ?x3824 9) (= ?x3824 11)) 30 31)))
 (let (($x147 (and (= (mod (+ ?x2561 (+ 0 (div ?x4004 12))) 4) 0) (and (distinct (mod (+ ?x2561 (+ 0 (div ?x4004 12))) 100) 0) true))))
 (let (($x2067 (or $x147 (= (mod (+ ?x2561 (+ 0 (div ?x4004 12))) 400) 0))))
 (let ((?x3126 (ite (= ?x3824 2) (ite $x2067 29 28) ?x3095)))
 (let (($x741 (> 1 ?x778)))
 (let ((?x714 (ite $x741 1 (ite (> ?x778 ?x3126) ?x3126 ?x778))))
 (let ((?x102 (ite (> 1 ?x714) 1 (ite (> ?x714 ?x3126) ?x3126 ?x714))))
 (let ((?x3705 (ite (= 2 ?x3824) (ite $x2067 31 31) (ite (= 1 ?x3824) (ite $x2067 0 0) 0))))
 (let ((?x3528 (ite (= 4 ?x3824) (ite $x2067 91 90) (ite (= 3 ?x3824) (ite $x2067 60 59) ?x3705))))
 (let ((?x1383 (ite (= 6 ?x3824) (ite $x2067 152 151) (ite (= 5 ?x3824) (ite $x2067 121 120) ?x3528))))
 (let ((?x137 (ite (= 8 ?x3824) (ite $x2067 213 212) (ite (= 7 ?x3824) (ite $x2067 182 181) ?x1383))))
 (let ((?x764 (ite (= 10 ?x3824) (ite $x2067 274 273) (ite (= 9 ?x3824) (ite $x2067 244 243) ?x137))))
 (let ((?x261 (ite (= 12 ?x3824) (ite $x2067 335 334) (ite (= 11 ?x3824) (ite $x2067 305 304) ?x764))))
 (let ((?x798 (+ (* 365 (- (+ ?x2561 (+ 0 (div ?x4004 12))) 1)) (div (- (+ ?x2561 (+ 0 (div ?x4004 12))) 1) 4))))
 (let ((?x193 (+ (- ?x798 (div (- (+ ?x2561 (+ 0 (div ?x4004 12))) 1) 100)) (div (- (+ ?x2561 (+ 0 (div ?x4004 12))) 1) 400))))
 (let ((?x3655 (+ (+ (- (+ (+ ?x193 ?x261) (- ?x102 1)) ?x97) 0) ?x97)))
 (let ((?x3657 (mod ?x3655 146097)))
 (let ((?x114 (div ?x3657 36524)))
 (let ((?x347 (ite (<= 4 ?x114) 3 ?x114)))
 (let ((?x3546 (- ?x3657 (* ?x347 36524))))
 (let ((?x3526 (mod ?x3546 1461)))
 (let ((?x3522 (div ?x3526 365)))
 (let ((?x3544 (ite (<= 4 ?x3522) 3 ?x3522)))
 (let ((?x806 (+ (+ (* (div ?x3655 146097) 400) (* ?x347 100)) (* (div ?x3546 1461) 4))))
 (let ((?x841 (+ (+ ?x806 ?x3544) 1)))
 (let ((?x3823 (+ 0 (div ?x4004 12))))
 (let ((?x3476 (+ ?x2561 ?x3823)))
 (let (($x722 (= 0 0)))
 (let ((?x697 (ite $x722 ?x3476 ?x841)))
 (= x_plus_year ?x697)))))))))))))))))))))))))))))))))))))))))))))))))))))))))))))))))))))))))))))))))))))))))))))
(assert
 (let (($x29 (or (and (= (mod 2000 4) 0) (and (distinct (mod 2000 100) 0) true)) (= (mod 2000 400) 0))))
 (let ((?x36 (ite (= 3 2) (ite $x29 31 31) (ite (= 3 1) (ite $x29 0 0) 0))))
 (let ((?x40 (ite $x29 60 59)))
 (let ((?x41 (ite (= 3 3) ?x40 ?x36)))
 (let ((?x46 (ite (= 3 4) (ite $x29 91 90) ?x41)))
 (let ((?x52 (ite (= 3 5) (ite $x29 121 120) ?x46)))
 (let ((?x58 (ite (= 3 6) (ite $x29 152 151) ?x52)))
 (let ((?x64 (ite (= 3 7) (ite $x29 182 181) ?x58)))
 (let ((?x70 (ite (= 3 8) (ite $x29 213 212) ?x64)))
 (let ((?x76 (ite (= 3 9) (ite $x29 244 243) ?x70)))
 (let ((?x82 (ite (= 3 10) (ite $x29 274 273) ?x76)))
 (let ((?x88 (ite (= 3 11) (ite $x29 305 304) ?x82)))
 (let ((?x16 (- (+ (* 365 (- 2000 1)) (div (- 2000 1) 4)) (div (- 2000 1) 100))))
 (let ((?x95 (+ (+ ?x16 (div (- 2000 1) 400)) (ite (= 3 12) (ite $x29 335 334) ?x88))))
 (let ((?x97 (+ ?x95 (- 1 1))))
 (let ((?x2924 (+ x_epoch ?x97)))
 (let ((?x727 (mod ?x2924 146097)))
 (let ((?x1551 (div ?x727 36524)))
 (let ((?x829 (ite (<= 4 ?x1551) 3 ?x1551)))
 (let ((?x661 (- ?x727 (* ?x829 36524))))
 (let ((?x522 (mod ?x661 1461)))
 (let ((?x268 (div ?x522 365)))
 (let ((?x530 (ite (<= 4 ?x268) 3 ?x268)))
 (let ((?x2487 (+ (+ (* (div ?x2924 146097) 400) (* ?x829 100)) (* (div ?x661 1461) 4))))
 (let ((?x2561 (+ (+ ?x2487 ?x530) 1)))
 (let (($x506 (or (and (= (mod ?x2561 4) 0) (and (distinct (mod ?x2561 100) 0) true)) (= (mod ?x2561 400) 0))))
 (let ((?x1830 (- ?x522 (* ?x530 365))))
 (let ((?x1481 (ite $x506 31 31)))
 (let (($x843 (>= ?x1830 ?x1481)))
 (let ((?x2703 (ite $x843 (+ (- ?x1830 ?x1481) 1) (+ (- ?x1830 (ite $x506 0 0)) 1))))
 (let ((?x1769 (ite $x506 60 59)))
 (let (($x696 (>= ?x1830 ?x1769)))
 (let ((?x1628 (ite $x506 91 90)))
 (let (($x110 (>= ?x1830 ?x1628)))
 (let ((?x487 (ite $x110 (+ (- ?x1830 ?x1628) 1) (ite $x696 (+ (- ?x1830 ?x1769) 1) ?x2703))))
 (let ((?x3177 (ite $x506 121 120)))
 (let (($x3167 (>= ?x1830 ?x3177)))
 (let ((?x2961 (ite $x506 152 151)))
 (let (($x2853 (>= ?x1830 ?x2961)))
 (let ((?x366 (ite $x2853 (+ (- ?x1830 ?x2961) 1) (ite $x3167 (+ (- ?x1830 ?x3177) 1) ?x487))))
 (let ((?x112 (ite $x506 182 181)))
 (let (($x2284 (>= ?x1830 ?x112)))
 (let ((?x3086 (ite $x506 213 212)))
 (let (($x795 (>= ?x1830 ?x3086)))
 (let ((?x1316 (ite $x795 (+ (- ?x1830 ?x3086) 1) (ite $x2284 (+ (- ?x1830 ?x112) 1) ?x366))))
 (let ((?x2707 (ite $x506 244 243)))
 (let (($x1828 (>= ?x1830 ?x2707)))
 (let ((?x1221 (ite $x506 274 273)))
 (let (($x1528 (>= ?x1830 ?x1221)))
 (let ((?x2530 (ite $x1528 (+ (- ?x1830 ?x1221) 1) (ite $x1828 (+ (- ?x1830 ?x2707) 1) ?x1316))))
 (let ((?x415 (ite $x506 305 304)))
 (let (($x3340 (>= ?x1830 ?x415)))
 (let ((?x629 (ite $x506 335 334)))
 (let (($x1422 (>= ?x1830 ?x629)))
 (let ((?x778 (ite $x1422 (+ (- ?x1830 ?x629) 1) (ite $x3340 (+ (- ?x1830 ?x415) 1) ?x2530))))
 (let ((?x4003 (+ (* 0 12) 2)))
 (let ((?x2157 (ite $x3167 5 (ite $x110 4 (ite $x696 3 (ite $x843 2 1))))))
 (let ((?x2411 (ite $x1828 9 (ite $x795 8 (ite $x2284 7 (ite $x2853 6 ?x2157))))))
 (let ((?x2610 (ite $x1422 12 (ite $x3340 11 (ite $x1528 10 ?x2411)))))
 (let ((?x2565 (+ ?x2610 ?x4003)))
 (let ((?x4004 (- ?x2565 1)))
 (let ((?x3824 (+ (mod ?x4004 12) 1)))
 (let ((?x3095 (ite (or (= ?x3824 4) (= ?x3824 6) (= ?x3824 9) (= ?x3824 11)) 30 31)))
 (let (($x147 (and (= (mod (+ ?x2561 (+ 0 (div ?x4004 12))) 4) 0) (and (distinct (mod (+ ?x2561 (+ 0 (div ?x4004 12))) 100) 0) true))))
 (let (($x2067 (or $x147 (= (mod (+ ?x2561 (+ 0 (div ?x4004 12))) 400) 0))))
 (let ((?x3126 (ite (= ?x3824 2) (ite $x2067 29 28) ?x3095)))
 (let (($x741 (> 1 ?x778)))
 (let ((?x714 (ite $x741 1 (ite (> ?x778 ?x3126) ?x3126 ?x778))))
 (let ((?x102 (ite (> 1 ?x714) 1 (ite (> ?x714 ?x3126) ?x3126 ?x714))))
 (let ((?x3705 (ite (= 2 ?x3824) (ite $x2067 31 31) (ite (= 1 ?x3824) (ite $x2067 0 0) 0))))
 (let ((?x3528 (ite (= 4 ?x3824) (ite $x2067 91 90) (ite (= 3 ?x3824) (ite $x2067 60 59) ?x3705))))
 (let ((?x1383 (ite (= 6 ?x3824) (ite $x2067 152 151) (ite (= 5 ?x3824) (ite $x2067 121 120) ?x3528))))
 (let ((?x137 (ite (= 8 ?x3824) (ite $x2067 213 212) (ite (= 7 ?x3824) (ite $x2067 182 181) ?x1383))))
 (let ((?x764 (ite (= 10 ?x3824) (ite $x2067 274 273) (ite (= 9 ?x3824) (ite $x2067 244 243) ?x137))))
 (let ((?x261 (ite (= 12 ?x3824) (ite $x2067 335 334) (ite (= 11 ?x3824) (ite $x2067 305 304) ?x764))))
 (let ((?x798 (+ (* 365 (- (+ ?x2561 (+ 0 (div ?x4004 12))) 1)) (div (- (+ ?x2561 (+ 0 (div ?x4004 12))) 1) 4))))
 (let ((?x193 (+ (- ?x798 (div (- (+ ?x2561 (+ 0 (div ?x4004 12))) 1) 100)) (div (- (+ ?x2561 (+ 0 (div ?x4004 12))) 1) 400))))
 (let ((?x3655 (+ (+ (- (+ (+ ?x193 ?x261) (- ?x102 1)) ?x97) 0) ?x97)))
 (let ((?x3657 (mod ?x3655 146097)))
 (let ((?x114 (div ?x3657 36524)))
 (let ((?x347 (ite (<= 4 ?x114) 3 ?x114)))
 (let ((?x3546 (- ?x3657 (* ?x347 36524))))
 (let ((?x3526 (mod ?x3546 1461)))
 (let ((?x3522 (div ?x3526 365)))
 (let ((?x3544 (ite (<= 4 ?x3522) 3 ?x3522)))
 (let ((?x806 (+ (+ (* (div ?x3655 146097) 400) (* ?x347 100)) (* (div ?x3546 1461) 4))))
 (let ((?x841 (+ (+ ?x806 ?x3544) 1)))
 (let (($x3482 (or (and (= (mod ?x841 4) 0) (and (distinct (mod ?x841 100) 0) true)) (= (mod ?x841 400) 0))))
 (let ((?x3336 (ite $x3482 31 31)))
 (let ((?x3704 (- ?x3526 (* ?x3544 365))))
 (let (($x3449 (>= ?x3704 ?x3336)))
 (let ((?x3543 (ite $x3482 60 59)))
 (let (($x3448 (>= ?x3704 ?x3543)))
 (let ((?x3510 (ite $x3482 91 90)))
 (let (($x2848 (>= ?x3704 ?x3510)))
 (let ((?x3511 (ite $x3482 121 120)))
 (let (($x1524 (>= ?x3704 ?x3511)))
 (let ((?x3532 (ite $x1524 5 (ite $x2848 4 (ite $x3448 3 (ite $x3449 2 1))))))
 (let ((?x3533 (ite $x3482 152 151)))
 (let (($x2677 (>= ?x3704 ?x3533)))
 (let ((?x3494 (ite $x3482 182 181)))
 (let (($x3468 (>= ?x3704 ?x3494)))
 (let ((?x3495 (ite $x3482 213 212)))
 (let (($x3504 (>= ?x3704 ?x3495)))
 (let ((?x3451 (ite $x3482 244 243)))
 (let (($x1181 (>= ?x3704 ?x3451)))
 (let ((?x3471 (ite $x1181 9 (ite $x3504 8 (ite $x3468 7 (ite $x2677 6 ?x3532))))))
 (let ((?x2679 (ite $x3482 274 273)))
 (let (($x3487 (>= ?x3704 ?x2679)))
 (let ((?x3450 (ite $x3482 305 304)))
 (let (($x739 (>= ?x3704 ?x3450)))
 (let ((?x2629 (ite $x3482 335 334)))
 (let (($x207 (>= ?x3704 ?x2629)))
 (let (($x722 (= 0 0)))
 (let ((?x686 (ite $x722 ?x3824 (ite $x207 12 (ite $x739 11 (ite $x3487 10 ?x3471))))))
 (= x_plus_month ?x686)))))))))))))))))))))))))))))))))))))))))))))))))))))))))))))))))))))))))))))))))))))))))))))))))))))))))))))))))))))
(assert
 (let (($x29 (or (and (= (mod 2000 4) 0) (and (distinct (mod 2000 100) 0) true)) (= (mod 2000 400) 0))))
 (let ((?x36 (ite (= 3 2) (ite $x29 31 31) (ite (= 3 1) (ite $x29 0 0) 0))))
 (let ((?x40 (ite $x29 60 59)))
 (let ((?x41 (ite (= 3 3) ?x40 ?x36)))
 (let ((?x46 (ite (= 3 4) (ite $x29 91 90) ?x41)))
 (let ((?x52 (ite (= 3 5) (ite $x29 121 120) ?x46)))
 (let ((?x58 (ite (= 3 6) (ite $x29 152 151) ?x52)))
 (let ((?x64 (ite (= 3 7) (ite $x29 182 181) ?x58)))
 (let ((?x70 (ite (= 3 8) (ite $x29 213 212) ?x64)))
 (let ((?x76 (ite (= 3 9) (ite $x29 244 243) ?x70)))
 (let ((?x82 (ite (= 3 10) (ite $x29 274 273) ?x76)))
 (let ((?x88 (ite (= 3 11) (ite $x29 305 304) ?x82)))
 (let ((?x16 (- (+ (* 365 (- 2000 1)) (div (- 2000 1) 4)) (div (- 2000 1) 100))))
 (let ((?x95 (+ (+ ?x16 (div (- 2000 1) 400)) (ite (= 3 12) (ite $x29 335 334) ?x88))))
 (let ((?x97 (+ ?x95 (- 1 1))))
 (let ((?x2924 (+ x_epoch ?x97)))
 (let ((?x727 (mod ?x2924 146097)))
 (let ((?x1551 (div ?x727 36524)))
 (let ((?x829 (ite (<= 4 ?x1551) 3 ?x1551)))
 (let ((?x661 (- ?x727 (* ?x829 36524))))
 (let ((?x522 (mod ?x661 1461)))
 (let ((?x268 (div ?x522 365)))
 (let ((?x530 (ite (<= 4 ?x268) 3 ?x268)))
 (let ((?x2487 (+ (+ (* (div ?x2924 146097) 400) (* ?x829 100)) (* (div ?x661 1461) 4))))
 (let ((?x2561 (+ (+ ?x2487 ?x530) 1)))
 (let (($x506 (or (and (= (mod ?x2561 4) 0) (and (distinct (mod ?x2561 100) 0) true)) (= (mod ?x2561 400) 0))))
 (let ((?x1830 (- ?x522 (* ?x530 365))))
 (let ((?x1481 (ite $x506 31 31)))
 (let (($x843 (>= ?x1830 ?x1481)))
 (let ((?x2703 (ite $x843 (+ (- ?x1830 ?x1481) 1) (+ (- ?x1830 (ite $x506 0 0)) 1))))
 (let ((?x1769 (ite $x506 60 59)))
 (let (($x696 (>= ?x1830 ?x1769)))
 (let ((?x1628 (ite $x506 91 90)))
 (let (($x110 (>= ?x1830 ?x1628)))
 (let ((?x487 (ite $x110 (+ (- ?x1830 ?x1628) 1) (ite $x696 (+ (- ?x1830 ?x1769) 1) ?x2703))))
 (let ((?x3177 (ite $x506 121 120)))
 (let (($x3167 (>= ?x1830 ?x3177)))
 (let ((?x2961 (ite $x506 152 151)))
 (let (($x2853 (>= ?x1830 ?x2961)))
 (let ((?x366 (ite $x2853 (+ (- ?x1830 ?x2961) 1) (ite $x3167 (+ (- ?x1830 ?x3177) 1) ?x487))))
 (let ((?x112 (ite $x506 182 181)))
 (let (($x2284 (>= ?x1830 ?x112)))
 (let ((?x3086 (ite $x506 213 212)))
 (let (($x795 (>= ?x1830 ?x3086)))
 (let ((?x1316 (ite $x795 (+ (- ?x1830 ?x3086) 1) (ite $x2284 (+ (- ?x1830 ?x112) 1) ?x366))))
 (let ((?x2707 (ite $x506 244 243)))
 (let (($x1828 (>= ?x1830 ?x2707)))
 (let ((?x1221 (ite $x506 274 273)))
 (let (($x1528 (>= ?x1830 ?x1221)))
 (let ((?x2530 (ite $x1528 (+ (- ?x1830 ?x1221) 1) (ite $x1828 (+ (- ?x1830 ?x2707) 1) ?x1316))))
 (let ((?x415 (ite $x506 305 304)))
 (let (($x3340 (>= ?x1830 ?x415)))
 (let ((?x629 (ite $x506 335 334)))
 (let (($x1422 (>= ?x1830 ?x629)))
 (let ((?x778 (ite $x1422 (+ (- ?x1830 ?x629) 1) (ite $x3340 (+ (- ?x1830 ?x415) 1) ?x2530))))
 (let ((?x4003 (+ (* 0 12) 2)))
 (let ((?x2157 (ite $x3167 5 (ite $x110 4 (ite $x696 3 (ite $x843 2 1))))))
 (let ((?x2411 (ite $x1828 9 (ite $x795 8 (ite $x2284 7 (ite $x2853 6 ?x2157))))))
 (let ((?x2610 (ite $x1422 12 (ite $x3340 11 (ite $x1528 10 ?x2411)))))
 (let ((?x2565 (+ ?x2610 ?x4003)))
 (let ((?x4004 (- ?x2565 1)))
 (let ((?x3824 (+ (mod ?x4004 12) 1)))
 (let ((?x3095 (ite (or (= ?x3824 4) (= ?x3824 6) (= ?x3824 9) (= ?x3824 11)) 30 31)))
 (let (($x147 (and (= (mod (+ ?x2561 (+ 0 (div ?x4004 12))) 4) 0) (and (distinct (mod (+ ?x2561 (+ 0 (div ?x4004 12))) 100) 0) true))))
 (let (($x2067 (or $x147 (= (mod (+ ?x2561 (+ 0 (div ?x4004 12))) 400) 0))))
 (let ((?x3126 (ite (= ?x3824 2) (ite $x2067 29 28) ?x3095)))
 (let (($x741 (> 1 ?x778)))
 (let ((?x714 (ite $x741 1 (ite (> ?x778 ?x3126) ?x3126 ?x778))))
 (let ((?x102 (ite (> 1 ?x714) 1 (ite (> ?x714 ?x3126) ?x3126 ?x714))))
 (let ((?x3705 (ite (= 2 ?x3824) (ite $x2067 31 31) (ite (= 1 ?x3824) (ite $x2067 0 0) 0))))
 (let ((?x3528 (ite (= 4 ?x3824) (ite $x2067 91 90) (ite (= 3 ?x3824) (ite $x2067 60 59) ?x3705))))
 (let ((?x1383 (ite (= 6 ?x3824) (ite $x2067 152 151) (ite (= 5 ?x3824) (ite $x2067 121 120) ?x3528))))
 (let ((?x137 (ite (= 8 ?x3824) (ite $x2067 213 212) (ite (= 7 ?x3824) (ite $x2067 182 181) ?x1383))))
 (let ((?x764 (ite (= 10 ?x3824) (ite $x2067 274 273) (ite (= 9 ?x3824) (ite $x2067 244 243) ?x137))))
 (let ((?x261 (ite (= 12 ?x3824) (ite $x2067 335 334) (ite (= 11 ?x3824) (ite $x2067 305 304) ?x764))))
 (let ((?x798 (+ (* 365 (- (+ ?x2561 (+ 0 (div ?x4004 12))) 1)) (div (- (+ ?x2561 (+ 0 (div ?x4004 12))) 1) 4))))
 (let ((?x193 (+ (- ?x798 (div (- (+ ?x2561 (+ 0 (div ?x4004 12))) 1) 100)) (div (- (+ ?x2561 (+ 0 (div ?x4004 12))) 1) 400))))
 (let ((?x3655 (+ (+ (- (+ (+ ?x193 ?x261) (- ?x102 1)) ?x97) 0) ?x97)))
 (let ((?x3657 (mod ?x3655 146097)))
 (let ((?x114 (div ?x3657 36524)))
 (let ((?x347 (ite (<= 4 ?x114) 3 ?x114)))
 (let ((?x3546 (- ?x3657 (* ?x347 36524))))
 (let ((?x3526 (mod ?x3546 1461)))
 (let ((?x3522 (div ?x3526 365)))
 (let ((?x3544 (ite (<= 4 ?x3522) 3 ?x3522)))
 (let ((?x806 (+ (+ (* (div ?x3655 146097) 400) (* ?x347 100)) (* (div ?x3546 1461) 4))))
 (let ((?x841 (+ (+ ?x806 ?x3544) 1)))
 (let (($x3482 (or (and (= (mod ?x841 4) 0) (and (distinct (mod ?x841 100) 0) true)) (= (mod ?x841 400) 0))))
 (let ((?x3704 (- ?x3526 (* ?x3544 365))))
 (let ((?x3336 (ite $x3482 31 31)))
 (let (($x3449 (>= ?x3704 ?x3336)))
 (let ((?x3492 (ite $x3449 (+ (- ?x3704 ?x3336) 1) (+ (- ?x3704 (ite $x3482 0 0)) 1))))
 (let ((?x3543 (ite $x3482 60 59)))
 (let (($x3448 (>= ?x3704 ?x3543)))
 (let ((?x3510 (ite $x3482 91 90)))
 (let (($x2848 (>= ?x3704 ?x3510)))
 (let ((?x341 (ite $x2848 (+ (- ?x3704 ?x3510) 1) (ite $x3448 (+ (- ?x3704 ?x3543) 1) ?x3492))))
 (let ((?x3511 (ite $x3482 121 120)))
 (let (($x1524 (>= ?x3704 ?x3511)))
 (let ((?x3533 (ite $x3482 152 151)))
 (let (($x2677 (>= ?x3704 ?x3533)))
 (let ((?x3703 (ite $x2677 (+ (- ?x3704 ?x3533) 1) (ite $x1524 (+ (- ?x3704 ?x3511) 1) ?x341))))
 (let ((?x3494 (ite $x3482 182 181)))
 (let (($x3468 (>= ?x3704 ?x3494)))
 (let ((?x3495 (ite $x3482 213 212)))
 (let (($x3504 (>= ?x3704 ?x3495)))
 (let ((?x337 (ite $x3504 (+ (- ?x3704 ?x3495) 1) (ite $x3468 (+ (- ?x3704 ?x3494) 1) ?x3703))))
 (let ((?x3451 (ite $x3482 244 243)))
 (let (($x1181 (>= ?x3704 ?x3451)))
 (let ((?x2679 (ite $x3482 274 273)))
 (let (($x3487 (>= ?x3704 ?x2679)))
 (let ((?x3990 (ite $x3487 (+ (- ?x3704 ?x2679) 1) (ite $x1181 (+ (- ?x3704 ?x3451) 1) ?x337))))
 (let ((?x3450 (ite $x3482 305 304)))
 (let (($x739 (>= ?x3704 ?x3450)))
 (let ((?x2629 (ite $x3482 335 334)))
 (let (($x207 (>= ?x3704 ?x2629)))
 (let ((?x355 (ite $x207 (+ (- ?x3704 ?x2629) 1) (ite $x739 (+ (- ?x3704 ?x3450) 1) ?x3990))))
 (let (($x722 (= 0 0)))
 (let ((?x187 (ite $x722 ?x102 ?x355)))
 (= x_plus_day ?x187)))))))))))))))))))))))))))))))))))))))))))))))))))))))))))))))))))))))))))))))))))))))))))))))))))))))))))))))))))))))))
(assert
 (>= x_plus_1_epoch (- 36584)))
(assert
 (<= x_plus_1_epoch 36829))
(assert
 (= x_plus_1_epoch (+ x_epoch 61)))
(assert
 (= x_plus_epoch x_plus_1_epoch))
(check-sat)
